15 3 
3850	3850	3850	
407	459	462	
741	489	529	
988	757	760	
951	207	217	
821	224	245	
227	664	702	
879	473	488	
943	419	428	
11	861	937	
721	42	44	
907	615	631	
526	563	586	
535	228	241	
654	779	845	
852	921	982	
